(set-info :smt-lib-version 2.6)
(set-logic QF_FP)
(set-info :source |
Generated by: Anastasiia Izycheva, Eva Darulova
Generated on: 2020-09-11
Generator: Pine (using Z3 Python API)
Application: Check inductiveness of a loop invariant
Target solver: CVC4

These benchmarks were generated while developing the tool Pine [1], which uses
CVC4/Z3 to check inductiveness of invariants. The work is described in [2].

[1] https://github.com/izycheva/pine
[2] A.Izycheva, E.Darulova, H.Seidl, SAS'20, "Counterexample- and Simulation-Guided Floating-Point Loop Invariant Synthesis"

 Loop:
   u' := u + 0.01 * v
   v' := v + 0.01 * (-0.5 * v - 9.81 * u)

 Input ranges:
   u in [0.0,0.0]
   v in [2.0,3.0]

 Invariant:
   -0.68*u + 0.05*v + 1.0*u^2 + -0.12*u*v + 0.05*v^2 <= 0.62
 and
   u in [-0.4,1.3]
   v in [-3.7,3.0]

 Query: Loop and Invariant and not Invariant'
|)
(set-info :license "https://creativecommons.org/licenses/by/4.0/")
(set-info :category "industrial")
(set-info :status unknown)
(declare-fun u!FP () (_ FloatingPoint 8 24))
(declare-fun v!FP () (_ FloatingPoint 8 24))
(declare-fun uFP () (_ FloatingPoint 8 24))
(declare-fun vFP () (_ FloatingPoint 8 24))
(assert
 (let ((?x230 (fp.mul roundNearestTiesToEven (fp #b0 #x7a #b10011001100110011001100) v!FP)))
 (let ((?x130 (fp.add roundNearestTiesToEven (fp.mul roundNearestTiesToEven ?x230 v!FP) (fp.mul roundNearestTiesToEven (fp #b1 #x7e #b01011100001010001111010) u!FP))))
 (let ((?x228 (fp.mul roundNearestTiesToEven (fp.mul roundNearestTiesToEven (fp #b1 #x7b #b11101011100001010001111) u!FP) v!FP)))
 (let ((?x127 (fp.mul roundNearestTiesToEven (fp.mul roundNearestTiesToEven (fp #b0 #x7f #b00000000000000000000000) u!FP) u!FP)))
 (let ((?x280 (fp.add roundNearestTiesToEven ?x127 (fp.add roundNearestTiesToEven ?x228 ?x130))))
 (let (($x187 (fp.leq (fp.add roundNearestTiesToEven ?x230 ?x280) (fp #b0 #x7e #b00111101011100001010001))))
 (let (($x123 (fp.leq v!FP (fp #b0 #x80 #b10000000000000000000000))))
 (let (($x64 (fp.leq (fp #b1 #x80 #b11011001100110011001100) v!FP)))
 (let (($x109 (fp.leq u!FP (fp #b0 #x7f #b01001100110011001100110))))
 (let (($x128 (fp.leq (fp #b1 #x7d #b10011001100110011001100) u!FP)))
 (let ((?x147 (fp.mul roundNearestTiesToEven (fp #b0 #x82 #b00111001111010111000010) uFP)))
 (let ((?x148 (fp.sub roundNearestTiesToEven (fp.mul roundNearestTiesToEven (fp.neg (fp #b0 #x7e #b00000000000000000000000)) vFP) ?x147)))
 (let ((?x150 (fp.add roundNearestTiesToEven vFP (fp.mul roundNearestTiesToEven (fp #b0 #x78 #b01000111101011100001010) ?x148))))
 (let ((?x141 (fp.add roundNearestTiesToEven uFP (fp.mul roundNearestTiesToEven (fp #b0 #x78 #b01000111101011100001010) vFP))))
 (let (($x142 (fp.eq u!FP ?x141)))
 (let ((?x99 (fp.mul roundNearestTiesToEven (fp #b0 #x7a #b10011001100110011001100) vFP)))
 (let ((?x162 (fp.add roundNearestTiesToEven (fp.mul roundNearestTiesToEven ?x99 vFP) (fp.mul roundNearestTiesToEven (fp #b1 #x7e #b01011100001010001111010) uFP))))
 (let ((?x216 (fp.mul roundNearestTiesToEven (fp.mul roundNearestTiesToEven (fp #b1 #x7b #b11101011100001010001111) uFP) vFP)))
 (let ((?x105 (fp.mul roundNearestTiesToEven (fp.mul roundNearestTiesToEven (fp #b0 #x7f #b00000000000000000000000) uFP) uFP)))
 (let ((?x271 (fp.add roundNearestTiesToEven ?x105 (fp.add roundNearestTiesToEven ?x216 ?x162))))
 (let (($x115 (fp.leq (fp.add roundNearestTiesToEven ?x99 ?x271) (fp #b0 #x7e #b00111101011100001010001))))
 (let (($x92 (fp.leq vFP (fp #b0 #x80 #b10000000000000000000000))))
 (let (($x196 (fp.leq (fp #b1 #x80 #b11011001100110011001100) vFP)))
 (let (($x77 (fp.leq uFP (fp #b0 #x7f #b01001100110011001100110))))
 (let (($x36 (fp.leq (fp #b1 #x7d #b10011001100110011001100) uFP)))
 (and (and (and $x36 $x77 $x196 $x92) $x115 ) (and $x142 (fp.eq v!FP ?x150)) (or (not $x128) (not $x109) (not $x64) (not $x123) (not $x187)))))))))))))))))))))))))))))
(check-sat)
(exit)
